<number of tasks>
100

<cycle time>
1000

<order strength>
0.595


<task times>
1 545
2 741
3 508
4 383
5 535
6 445
7 582
8 653
9 613
10 553
11 444
12 554
13 728
14 513
15 315
16 422
17 671
18 446
19 657
20 447
21 449
22 270
23 538
24 632
25 361
26 524
27 291
28 644
29 362
30 521
31 518
32 579
33 520
34 453
35 807
36 356
37 367
38 434
39 563
40 568
41 341
42 479
43 576
44 340
45 509
46 698
47 518
48 201
49 594
50 548
51 482
52 616
53 584
54 318
55 568
56 486
57 450
58 483
59 840
60 596
61 443
62 694
63 510
64 290
65 661
66 490
67 417
68 483
69 391
70 349
71 495
72 548
73 265
74 448
75 765
76 483
77 425
78 504
79 530
80 599
81 600
82 399
83 322
84 430
85 561
86 570
87 501
88 537
89 679
90 389
91 530
92 799
93 430
94 825
95 566
96 213
97 466
98 560
99 695
100 574

<precedence relations>
1,23
2,66
3,66
4,46
5,56
6,56
7,8
7,9
7,10
7,11
7,12
7,13
8,23
9,23
10,23
11,66
12,18
12,19
12,20
12,45
12,47
13,14
13,15
13,16
13,17
13,21
13,22
14,23
15,23
16,66
17,84
18,46
19,46
20,46
21,56
22,23
22,24
22,25
22,26
22,27
22,28
23,29
23,30
23,31
23,32
23,33
23,34
23,35
23,36
23,37
23,38
23,39
24,66
25,66
26,46
27,39
27,45
28,57
29,84
30,46
30,49
31,45
31,46
31,49
32,40
32,43
32,44
33,49
34,77
34,81
35,41
36,48
36,59
36,65
37,57
38,41
39,85
40,66
41,42
41,43
41,44
42,66
43,46
44,45
44,47
44,48
44,49
44,50
45,66
46,51
46,52
46,53
46,54
46,55
46,57
47,56
48,56
49,56
50,78
51,58
51,59
51,60
51,65
53,58
54,65
54,76
54,77
54,78
55,65
55,67
55,76
56,60
56,61
56,62
56,63
56,64
56,68
57,58
57,75
58,66
59,66
60,66
61,78
61,80
62,67
62,77
62,78
63,99
65,68
66,69
66,70
66,71
66,72
66,73
66,74
67,84
68,75
68,85
69,79
70,76
70,99
72,77
72,78
73,78
73,80
74,83
75,79
76,84
77,80
77,83
78,79
78,81
78,82
78,83
79,84
80,84
83,85
83,86
84,87
84,88
84,89
84,90
84,91
84,92
84,93
84,94
84,95
84,96
84,97
84,98
85,99
97,100

<end>
